53401
50, 28, 34, 53, 5, 21, 15, 39, 29, 22, 2, 18, 8, 35, 14, 4, 51, 43, 3, 55, 30, 47, 54, 9, 41, 32, 33, 23, 25, 24, 36, 1, 45, 13, 37, 7, 38, 42, 12, 11, 46, 16, 52, 27, 31, 17, 48, 19, 44, 20, 40, 6, 26, 49, 10
